c FILE                  :testfile2.gr
c No. of vertices       :30
c No. of directed edges :41
c Max. weight           :50
c Min. weight           :0
c Min. edge           :0
c Max. edge           :4
p sp 30 41
a 1 10 46
a 2 16 5
a 2 3 25
a 2 18 -48
a 4 17 -17
a 5 27 16
a 6 31 41
a 7 26 -12
a 7 6 -18
a 8 3 -42
a 8 13 11
a 9 16 -5
a 10 27 0
a 10 30 -36
a 10 23 -48
a 10 17 26
a 11 20 -27
a 11 15 14
a 11 10 -2
a 14 21 -33
a 14 18 -44
a 14 11 43
a 15 3 -12
a 16 9 22
a 16 14 -40
a 16 18 20
a 19 9 7
a 20 30 18
a 20 15 2
a 21 23 18
a 21 24 -1
a 22 10 -9
a 22 25 -39
a 24 20 28
a 24 10 16
a 25 20 21
a 25 19 23
a 25 2 -10
a 26 26 -18
a 26 19 28
a 27 14 7
